;symbolic execution tree
(push)
(assert (le x1 java.lang.StringBuilder))
(check-sat)
(push)
(assert (le x0 java.util.Set))
(check-sat)
(push)
(assert (le x1 java.lang.StringBuilder))
(check-sat)
(push)
(assert (le x1 java.lang.StringBuilder))
(check-sat)
(push)
(assert (le x0 java.util.Set))
(check-sat)
(pop)
(push)
(assert (not (le x0 java.util.Set)))
(check-sat)
(pop)
(push)
(assert (le x1 java.lang.StringBuilder))
(check-sat)
(push)
(assert (le x1 java.lang.StringBuilder))
(check-sat)
(pop)
(push)
(assert (not (le x1 java.lang.StringBuilder)))
(check-sat)
(pop)
(push)
(assert (le x1 java.lang.StringBuilder))
(check-sat)
(push)
(assert (le x0 java.util.Set))
(check-sat)
(push)
(assert (le x1 java.lang.StringBuilder))
(check-sat)
(pop)
(push)
(assert (not (le x1 java.lang.StringBuilder)))
(check-sat)
(pop)
(pop)
(push)
(assert (not (le x0 java.util.Set)))
(check-sat)
(pop)
(push)
(assert (le x1 java.lang.StringBuilder))
(check-sat)
(pop)
(push)
(assert (not (le x1 java.lang.StringBuilder)))
(check-sat)
(pop)
(push)
(assert (le x1 java.lang.StringBuilder))
(check-sat)
(pop)
(push)
(assert (not (le x1 java.lang.StringBuilder)))
(check-sat)
(pop)
(pop)
(push)
(assert (not (le x1 java.lang.StringBuilder)))
(check-sat)
(pop)
(push)
(assert (le x0 java.util.Set))
(check-sat)
(push)
(assert (le x1 java.lang.StringBuilder))
(check-sat)
(push)
(assert (le x1 java.lang.StringBuilder))
(check-sat)
(push)
(assert (le x0 java.util.Set))
(check-sat)
(pop)
(push)
(assert (not (le x0 java.util.Set)))
(check-sat)
(pop)
(pop)
(push)
(assert (not (le x1 java.lang.StringBuilder)))
(check-sat)
(pop)
(push)
(assert (le x0 java.util.Set))
(check-sat)
(pop)
(push)
(assert (not (le x0 java.util.Set)))
(check-sat)
(pop)
(push)
(assert (le x0 java.util.Set))
(check-sat)
(pop)
(push)
(assert (not (le x0 java.util.Set)))
(check-sat)
(pop)
(push)
(assert (le x0 java.util.Set))
(check-sat)
(pop)
(push)
(assert (not (le x0 java.util.Set)))
(check-sat)
(pop)
(pop)
(push)
(assert (not (le x1 java.lang.StringBuilder)))
(check-sat)
(pop)
(pop)
(push)
(assert (not (le x0 java.util.Set)))
(check-sat)
(pop)
(push)
(assert (le x1 java.lang.StringBuilder))
(check-sat)
(pop)
(push)
(assert (not (le x1 java.lang.StringBuilder)))
(check-sat)
(pop)
(push)
(assert (le x0 java.util.Set))
(check-sat)
(pop)
(push)
(assert (not (le x0 java.util.Set)))
(check-sat)
(pop)
(push)
(assert (le x0 java.util.Set))
(check-sat)
(pop)
(push)
(assert (not (le x0 java.util.Set)))
(check-sat)
(pop)
(push)
(assert (le x0 java.util.Set))
(check-sat)
(pop)
(push)
(assert (not (le x0 java.util.Set)))
(check-sat)
(pop)
(pop)
(push)
(assert (not (le x1 java.lang.StringBuilder)))
(check-sat)
(pop)
(pop)
(push)
(assert (not (le x1 java.lang.StringBuilder)))
(check-sat)
(pop)
(push)
(assert (le x1 java.lang.StringBuilder))
(check-sat)
(pop)
(push)
(assert (not (le x1 java.lang.StringBuilder)))
(check-sat)
(pop)
(pop)
(push)
(assert (not (le x1 java.lang.StringBuilder)))
(check-sat)
(pop)
(push)
(assert (le x0 java.util.Set))
(check-sat)
(pop)
(push)
(assert (not (le x0 java.util.Set)))
(check-sat)
(pop)
(pop)
(push)
(assert (not (le x0 java.util.Set)))
(check-sat)
(push)
(assert (le x1 java.lang.StringBuilder))
(check-sat)
(push)
(assert (le x0 java.util.Set))
(check-sat)
(pop)
(push)
(assert (not (le x0 java.util.Set)))
(check-sat)
(push)
(assert (le x1 java.lang.StringBuilder))
(check-sat)
(pop)
(push)
(assert (not (le x1 java.lang.StringBuilder)))
(check-sat)
(pop)
(push)
(assert (le x1 java.lang.StringBuilder))
(check-sat)
(pop)
(push)
(assert (not (le x1 java.lang.StringBuilder)))
(check-sat)
(pop)
(push)
(assert (le x1 java.lang.StringBuilder))
(check-sat)
(pop)
(push)
(assert (not (le x1 java.lang.StringBuilder)))
(check-sat)
(pop)
(pop)
(push)
(assert (le x1 java.lang.StringBuilder))
(check-sat)
(push)
(assert (le x1 java.lang.StringBuilder))
(check-sat)
(pop)
(push)
(assert (not (le x1 java.lang.StringBuilder)))
(check-sat)
(pop)
(push)
(assert (le x1 java.lang.StringBuilder))
(check-sat)
(push)
(assert (le x1 java.lang.StringBuilder))
(check-sat)
(pop)
(push)
(assert (not (le x1 java.lang.StringBuilder)))
(check-sat)
(pop)
(pop)
(push)
(assert (not (le x1 java.lang.StringBuilder)))
(check-sat)
(pop)
(push)
(assert (le x0 java.util.Set))
(check-sat)
(pop)
(push)
(assert (not (le x0 java.util.Set)))
(check-sat)
(push)
(assert (le x1 java.lang.StringBuilder))
(check-sat)
(pop)
(push)
(assert (not (le x1 java.lang.StringBuilder)))
(check-sat)
(pop)
(pop)
(pop)
(push)
(assert (not (le x1 java.lang.StringBuilder)))
(check-sat)
(pop)
(push)
(assert (le x1 java.lang.StringBuilder))
(check-sat)
(push)
(assert (le x0 java.util.Set))
(check-sat)
(pop)
(push)
(assert (not (le x0 java.util.Set)))
(check-sat)
(pop)
(push)
(assert (le x0 java.util.Set))
(check-sat)
(pop)
(push)
(assert (not (le x0 java.util.Set)))
(check-sat)
(push)
(assert (le x1 java.lang.StringBuilder))
(check-sat)
(pop)
(push)
(assert (not (le x1 java.lang.StringBuilder)))
(check-sat)
(pop)
(push)
(assert (le x0 java.util.Set))
(check-sat)
(pop)
(push)
(assert (not (le x0 java.util.Set)))
(check-sat)
(pop)
(pop)
(push)
(assert (le x1 java.lang.StringBuilder))
(check-sat)
(push)
(assert (le x0 java.util.Set))
(check-sat)
(pop)
(push)
(assert (not (le x0 java.util.Set)))
(check-sat)
(push)
(assert (le x1 java.lang.StringBuilder))
(check-sat)
(pop)
(push)
(assert (not (le x1 java.lang.StringBuilder)))
(check-sat)
(pop)
(pop)
(pop)
(push)
(assert (not (le x1 java.lang.StringBuilder)))
(check-sat)
(pop)
(push)
(assert (le x0 java.util.Set))
(check-sat)
(pop)
(push)
(assert (not (le x0 java.util.Set)))
(check-sat)
(push)
(assert (le x0 java.util.Set))
(check-sat)
(pop)
(push)
(assert (not (le x0 java.util.Set)))
(check-sat)
(push)
(assert (le x1 java.lang.StringBuilder))
(check-sat)
(push)
(assert (le x1 java.lang.StringBuilder))
(check-sat)
(pop)
(push)
(assert (not (le x1 java.lang.StringBuilder)))
(check-sat)
(pop)
(pop)
(push)
(assert (not (le x1 java.lang.StringBuilder)))
(check-sat)
(pop)
(push)
(assert (le x1 java.lang.StringBuilder))
(check-sat)
(pop)
(push)
(assert (not (le x1 java.lang.StringBuilder)))
(check-sat)
(pop)
(pop)
(pop)
(push)
(assert (le x1 java.lang.StringBuilder))
(check-sat)
(push)
(assert (le x0 java.util.Set))
(check-sat)
(pop)
(push)
(assert (not (le x0 java.util.Set)))
(check-sat)
(push)
(assert (le x0 java.util.Set))
(check-sat)
(pop)
(push)
(assert (not (le x0 java.util.Set)))
(check-sat)
(push)
(assert (le x1 java.lang.StringBuilder))
(check-sat)
(pop)
(push)
(assert (not (le x1 java.lang.StringBuilder)))
(check-sat)
(pop)
(pop)
(pop)
(push)
(assert (le x1 java.lang.StringBuilder))
(check-sat)
(pop)
(push)
(assert (not (le x1 java.lang.StringBuilder)))
(check-sat)
(pop)
(pop)
(push)
(assert (not (le x1 java.lang.StringBuilder)))
(check-sat)
(pop)
(push)
(assert (le x0 java.util.Set))
(check-sat)
(pop)
(push)
(assert (not (le x0 java.util.Set)))
(check-sat)
(pop)
(pop)
(push)
(assert (not (le x1 java.lang.StringBuilder)))
(check-sat)
(pop)
(push)
(assert (le x1 java.lang.StringBuilder))
(check-sat)
(pop)
(push)
(assert (not (le x1 java.lang.StringBuilder)))
(check-sat)
(pop)
(pop)
(push)
(assert (not (le x1 java.lang.StringBuilder)))
(check-sat)
(pop)
(push)
(assert (le x1 java.lang.StringBuilder))
(check-sat)
(push)
(assert (le x0 java.util.Set))
(check-sat)
(pop)
(push)
(assert (not (le x0 java.util.Set)))
(check-sat)
(pop)
(pop)
(push)
(assert (not (le x1 java.lang.StringBuilder)))
(check-sat)
(pop)
(pop)
(pop)
(push)
(assert (not (le x1 java.lang.StringBuilder)))
(check-sat)
(push)
(assert (le x0 java.net.InetAddress))
(check-sat)
(push)
(assert (le x0 java.net.InetAddress))
(check-sat)
(push)
(assert (le x1 java.lang.StringBuilder))
(check-sat)
(pop)
(push)
(assert (not (le x1 java.lang.StringBuilder)))
(check-sat)
(pop)
(push)
(assert (le x0 java.net.InetAddress))
(check-sat)
(push)
(assert (le x0 java.net.InetAddress))
(check-sat)
(pop)
(push)
(assert (not (le x0 java.net.InetAddress)))
(check-sat)
(pop)
(push)
(assert (le x1 java.lang.StringBuilder))
(check-sat)
(pop)
(push)
(assert (not (le x1 java.lang.StringBuilder)))
(check-sat)
(push)
(assert (le x1 java.lang.StringBuilder))
(check-sat)
(pop)
(push)
(assert (not (le x1 java.lang.StringBuilder)))
(check-sat)
(pop)
(pop)
(pop)
(push)
(assert (not (le x0 java.net.InetAddress)))
(check-sat)
(pop)
(push)
(assert (le x0 java.net.InetAddress))
(check-sat)
(pop)
(push)
(assert (not (le x0 java.net.InetAddress)))
(check-sat)
(pop)
(push)
(assert (le x1 java.lang.StringBuilder))
(check-sat)
(pop)
(push)
(assert (not (le x1 java.lang.StringBuilder)))
(check-sat)
(push)
(assert (le x0 java.net.InetAddress))
(check-sat)
(pop)
(push)
(assert (not (le x0 java.net.InetAddress)))
(check-sat)
(pop)
(push)
(assert (le x0 java.net.InetAddress))
(check-sat)
(push)
(assert (le x1 java.lang.StringBuilder))
(check-sat)
(pop)
(push)
(assert (not (le x1 java.lang.StringBuilder)))
(check-sat)
(pop)
(push)
(assert (le x1 java.lang.StringBuilder))
(check-sat)
(pop)
(push)
(assert (not (le x1 java.lang.StringBuilder)))
(check-sat)
(pop)
(pop)
(push)
(assert (not (le x0 java.net.InetAddress)))
(check-sat)
(pop)
(push)
(assert (le x1 java.lang.StringBuilder))
(check-sat)
(pop)
(push)
(assert (not (le x1 java.lang.StringBuilder)))
(check-sat)
(push)
(assert (le x0 java.net.InetAddress))
(check-sat)
(pop)
(push)
(assert (not (le x0 java.net.InetAddress)))
(check-sat)
(pop)
(push)
(assert (le x0 java.net.InetAddress))
(check-sat)
(pop)
(push)
(assert (not (le x0 java.net.InetAddress)))
(check-sat)
(pop)
(pop)
(push)
(assert (le x1 java.lang.StringBuilder))
(check-sat)
(pop)
(push)
(assert (not (le x1 java.lang.StringBuilder)))
(check-sat)
(push)
(assert (le x1 java.lang.StringBuilder))
(check-sat)
(pop)
(push)
(assert (not (le x1 java.lang.StringBuilder)))
(check-sat)
(pop)
(pop)
(push)
(assert (le x0 java.net.InetAddress))
(check-sat)
(push)
(assert (le x0 java.net.InetAddress))
(check-sat)
(push)
(assert (le x0 java.net.InetAddress))
(check-sat)
(pop)
(push)
(assert (not (le x0 java.net.InetAddress)))
(check-sat)
(pop)
(pop)
(push)
(assert (not (le x0 java.net.InetAddress)))
(check-sat)
(pop)
(push)
(assert (le x0 java.net.InetAddress))
(check-sat)
(push)
(assert (le x1 java.lang.StringBuilder))
(check-sat)
(pop)
(push)
(assert (not (le x1 java.lang.StringBuilder)))
(check-sat)
(pop)
(push)
(assert (le x0 java.net.InetAddress))
(check-sat)
(pop)
(push)
(assert (not (le x0 java.net.InetAddress)))
(check-sat)
(pop)
(pop)
(push)
(assert (not (le x0 java.net.InetAddress)))
(check-sat)
(pop)
(pop)
(push)
(assert (not (le x0 java.net.InetAddress)))
(check-sat)
(pop)
(pop)
(push)
(assert (le x0 java.net.InetAddress))
(check-sat)
(push)
(assert (le x0 java.net.InetAddress))
(check-sat)
(pop)
(push)
(assert (not (le x0 java.net.InetAddress)))
(check-sat)
(pop)
(push)
(assert (le x1 java.lang.StringBuilder))
(check-sat)
(pop)
(push)
(assert (not (le x1 java.lang.StringBuilder)))
(check-sat)
(pop)
(pop)
(push)
(assert (not (le x0 java.net.InetAddress)))
(check-sat)
(pop)
(push)
(assert (le x1 java.lang.StringBuilder))
(check-sat)
(pop)
(push)
(assert (not (le x1 java.lang.StringBuilder)))
(check-sat)
(pop)
(push)
(assert (le x1 java.lang.StringBuilder))
(check-sat)
(pop)
(push)
(assert (not (le x1 java.lang.StringBuilder)))
(check-sat)
(push)
(assert (le x1 java.lang.StringBuilder))
(check-sat)
(pop)
(push)
(assert (not (le x1 java.lang.StringBuilder)))
(check-sat)
(push)
(assert (le x0 java.net.InetAddress))
(check-sat)
(push)
(assert (le x1 java.lang.StringBuilder))
(check-sat)
(pop)
(push)
(assert (not (le x1 java.lang.StringBuilder)))
(check-sat)
(push)
(assert (le x0 java.net.InetAddress))
(check-sat)
(pop)
(push)
(assert (not (le x0 java.net.InetAddress)))
(check-sat)
(pop)
(pop)
(pop)
(push)
(assert (not (le x0 java.net.InetAddress)))
(check-sat)
(pop)
(pop)
(pop)
(pop)
(push)
(assert (not (le x0 java.net.InetAddress)))
(check-sat)
(pop)
(pop)
(push)
(assert (not (le x0 java.net.InetAddress)))
(check-sat)
(push)
(assert (le x0 java.net.InetAddress))
(check-sat)
(pop)
(push)
(assert (not (le x0 java.net.InetAddress)))
(check-sat)
(pop)
(push)
(assert (le x1 java.lang.StringBuilder))
(check-sat)
(pop)
(push)
(assert (not (le x1 java.lang.StringBuilder)))
(check-sat)
(push)
(assert (le x0 java.net.InetAddress))
(check-sat)
(pop)
(push)
(assert (not (le x0 java.net.InetAddress)))
(check-sat)
(push)
(assert (le x0 java.net.InetAddress))
(check-sat)
(pop)
(push)
(assert (not (le x0 java.net.InetAddress)))
(check-sat)
(push)
(assert (le x1 java.lang.StringBuilder))
(check-sat)
(pop)
(push)
(assert (not (le x1 java.lang.StringBuilder)))
(check-sat)
(pop)
(pop)
(push)
(assert (le x0 java.net.InetAddress))
(check-sat)
(pop)
(push)
(assert (not (le x0 java.net.InetAddress)))
(check-sat)
(push)
(assert (le x0 java.net.InetAddress))
(check-sat)
(pop)
(push)
(assert (not (le x0 java.net.InetAddress)))
(check-sat)
(pop)
(push)
(assert (le x1 java.lang.StringBuilder))
(check-sat)
(pop)
(push)
(assert (not (le x1 java.lang.StringBuilder)))
(check-sat)
(push)
(assert (le x1 java.lang.StringBuilder))
(check-sat)
(pop)
(push)
(assert (not (le x1 java.lang.StringBuilder)))
(check-sat)
(pop)
(push)
(assert (le x1 java.lang.StringBuilder))
(check-sat)
(pop)
(push)
(assert (not (le x1 java.lang.StringBuilder)))
(check-sat)
(push)
(assert (le x0 java.net.InetAddress))
(check-sat)
(pop)
(push)
(assert (not (le x0 java.net.InetAddress)))
(check-sat)
(pop)
(pop)
(pop)
(pop)
(push)
(assert (le x1 java.lang.StringBuilder))
(check-sat)
(pop)
(push)
(assert (not (le x1 java.lang.StringBuilder)))
(check-sat)
(pop)
(push)
(assert (le x0 java.net.InetAddress))
(check-sat)
(pop)
(push)
(assert (not (le x0 java.net.InetAddress)))
(check-sat)
(pop)
(push)
(assert (le x0 java.net.InetAddress))
(check-sat)
(pop)
(push)
(assert (not (le x0 java.net.InetAddress)))
(check-sat)
(push)
(assert (le x1 java.lang.StringBuilder))
(check-sat)
(pop)
(push)
(assert (not (le x1 java.lang.StringBuilder)))
(check-sat)
(push)
(assert (le x0 java.net.InetAddress))
(check-sat)
(pop)
(push)
(assert (not (le x0 java.net.InetAddress)))
(check-sat)
(pop)
(pop)
(pop)
(pop)
(pop)
(push)
(assert (le x0 java.net.InetAddress))
(check-sat)
(pop)
(push)
(assert (not (le x0 java.net.InetAddress)))
(check-sat)
(pop)
(push)
(assert (le x1 java.lang.StringBuilder))
(check-sat)
(pop)
(push)
(assert (not (le x1 java.lang.StringBuilder)))
(check-sat)
(push)
(assert (le x0 java.net.InetAddress))
(check-sat)
(pop)
(push)
(assert (not (le x0 java.net.InetAddress)))
(check-sat)
(push)
(assert (le x1 java.lang.StringBuilder))
(check-sat)
(pop)
(push)
(assert (not (le x1 java.lang.StringBuilder)))
(check-sat)
(pop)
(push)
(assert (le x0 java.net.InetAddress))
(check-sat)
(pop)
(push)
(assert (not (le x0 java.net.InetAddress)))
(check-sat)
(push)
(assert (le x1 java.lang.StringBuilder))
(check-sat)
(pop)
(push)
(assert (not (le x1 java.lang.StringBuilder)))
(check-sat)
(push)
(assert (le x0 java.net.InetAddress))
(check-sat)
(pop)
(push)
(assert (not (le x0 java.net.InetAddress)))
(check-sat)
(pop)
(pop)
(pop)
(push)
(assert (le x0 java.net.InetAddress))
(check-sat)
(pop)
(push)
(assert (not (le x0 java.net.InetAddress)))
(check-sat)
(pop)
(pop)
(pop)
(push)
(assert (le x0 java.net.InetAddress))
(check-sat)
(pop)
(push)
(assert (not (le x0 java.net.InetAddress)))
(check-sat)
(push)
(assert (le x1 java.lang.StringBuilder))
(check-sat)
(pop)
(push)
(assert (not (le x1 java.lang.StringBuilder)))
(check-sat)
(pop)
(push)
(assert (le x0 java.net.InetAddress))
(check-sat)
(pop)
(push)
(assert (not (le x0 java.net.InetAddress)))
(check-sat)
(pop)
(push)
(assert (le x1 java.lang.StringBuilder))
(check-sat)
(pop)
(push)
(assert (not (le x1 java.lang.StringBuilder)))
(check-sat)
(pop)
(push)
(assert (le x1 java.lang.StringBuilder))
(check-sat)
(pop)
(push)
(assert (not (le x1 java.lang.StringBuilder)))
(check-sat)
(push)
(assert (le x0 java.net.InetAddress))
(check-sat)
(pop)
(push)
(assert (not (le x0 java.net.InetAddress)))
(check-sat)
(pop)
(pop)
(pop)
(push)
(assert (le x0 java.net.InetAddress))
(check-sat)
(pop)
(push)
(assert (not (le x0 java.net.InetAddress)))
(check-sat)
(push)
(assert (le x0 java.net.InetAddress))
(check-sat)
(pop)
(push)
(assert (not (le x0 java.net.InetAddress)))
(check-sat)
(pop)
(push)
(assert (le x0 java.net.InetAddress))
(check-sat)
(pop)
(push)
(assert (not (le x0 java.net.InetAddress)))
(check-sat)
(push)
(assert (le x0 java.net.InetAddress))
(check-sat)
(pop)
(push)
(assert (not (le x0 java.net.InetAddress)))
(check-sat)
(push)
(assert (le x0 java.net.InetAddress))
(check-sat)
(pop)
(push)
(assert (not (le x0 java.net.InetAddress)))
(check-sat)
(pop)
(push)
(assert (le x0 java.net.InetAddress))
(check-sat)
(pop)
(push)
(assert (not (le x0 java.net.InetAddress)))
(check-sat)
(push)
(assert (le x0 java.net.InetAddress))
(check-sat)
(pop)
(push)
(assert (not (le x0 java.net.InetAddress)))
(check-sat)
(push)
(assert (le x1 java.lang.StringBuilder))
(check-sat)
(pop)
(push)
(assert (not (le x1 java.lang.StringBuilder)))
(check-sat)
(pop)
(pop)
(pop)
(push)
(assert (le x0 java.net.InetAddress))
(check-sat)
(pop)
(push)
(assert (not (le x0 java.net.InetAddress)))
(check-sat)
(push)
(assert (le x1 java.lang.StringBuilder))
(check-sat)
(pop)
(push)
(assert (not (le x1 java.lang.StringBuilder)))
(check-sat)
(push)
(assert (le x0 java.net.InetAddress))
(check-sat)
(pop)
(push)
(assert (not (le x0 java.net.InetAddress)))
(check-sat)
(pop)
(push)
(assert (le x1 java.lang.StringBuilder))
(check-sat)
(pop)
(push)
(assert (not (le x1 java.lang.StringBuilder)))
(check-sat)
(pop)
(pop)
(push)
(assert (le x0 java.net.InetAddress))
(check-sat)
(pop)
(push)
(assert (not (le x0 java.net.InetAddress)))
(check-sat)
(pop)
(pop)
(pop)
(push)
(assert (le x1 java.lang.StringBuilder))
(check-sat)
(pop)
(push)
(assert (not (le x1 java.lang.StringBuilder)))
(check-sat)
(push)
(assert (le x0 java.net.InetAddress))
(check-sat)
(pop)
(push)
(assert (not (le x0 java.net.InetAddress)))
(check-sat)
(pop)
(push)
(assert (le x0 java.net.InetAddress))
(check-sat)
(pop)
(push)
(assert (not (le x0 java.net.InetAddress)))
(check-sat)
(pop)
(push)
(assert (le x0 java.net.InetAddress))
(check-sat)
(pop)
(push)
(assert (not (le x0 java.net.InetAddress)))
(check-sat)
(pop)
(pop)
(pop)
(pop)
(push)
(assert (le x1 java.lang.StringBuilder))
(check-sat)
(pop)
(push)
(assert (not (le x1 java.lang.StringBuilder)))
(check-sat)
(push)
(assert (le x1 java.lang.StringBuilder))
(check-sat)
(pop)
(push)
(assert (not (le x1 java.lang.StringBuilder)))
(check-sat)
(pop)
(push)
(assert (le x0 java.net.InetAddress))
(check-sat)
(pop)
(push)
(assert (not (le x0 java.net.InetAddress)))
(check-sat)
(pop)
(push)
(assert (le x0 java.net.InetAddress))
(check-sat)
(pop)
(push)
(assert (not (le x0 java.net.InetAddress)))
(check-sat)
(push)
(assert (le x1 java.lang.StringBuilder))
(check-sat)
(pop)
(push)
(assert (not (le x1 java.lang.StringBuilder)))
(check-sat)
(push)
(assert (le x0 java.net.InetAddress))
(check-sat)
(pop)
(push)
(assert (not (le x0 java.net.InetAddress)))
(check-sat)
(pop)
(pop)
(push)
(assert (le x1 java.lang.StringBuilder))
(check-sat)
(pop)
(push)
(assert (not (le x1 java.lang.StringBuilder)))
(check-sat)
(pop)
(push)
(assert (le x0 java.net.InetAddress))
(check-sat)
(pop)
(push)
(assert (not (le x0 java.net.InetAddress)))
(check-sat)
(push)
(assert (le x0 java.net.InetAddress))
(check-sat)
(pop)
(push)
(assert (not (le x0 java.net.InetAddress)))
(check-sat)
(pop)
(push)
(assert (le x1 java.lang.StringBuilder))
(check-sat)
(pop)
(push)
(assert (not (le x1 java.lang.StringBuilder)))
(check-sat)
(push)
(assert (le x1 java.lang.StringBuilder))
(check-sat)
(pop)
(push)
(assert (not (le x1 java.lang.StringBuilder)))
(check-sat)
(pop)
(pop)
(pop)
(pop)
(push)
(assert (le x0 java.net.InetAddress))
(check-sat)
(pop)
(push)
(assert (not (le x0 java.net.InetAddress)))
(check-sat)
(push)
(assert (le x1 java.lang.StringBuilder))
(check-sat)
(pop)
(push)
(assert (not (le x1 java.lang.StringBuilder)))
(check-sat)
(push)
(assert (le x1 java.lang.StringBuilder))
(check-sat)
(pop)
(push)
(assert (not (le x1 java.lang.StringBuilder)))
(check-sat)
(push)
(assert (le x0 java.net.InetAddress))
(check-sat)
(pop)
(push)
(assert (not (le x0 java.net.InetAddress)))
(check-sat)
(pop)
(push)
(assert (le x0 java.net.InetAddress))
(check-sat)
(pop)
(push)
(assert (not (le x0 java.net.InetAddress)))
(check-sat)
(pop)
(pop)
(push)
(assert (le x0 java.net.InetAddress))
(check-sat)
(pop)
(push)
(assert (not (le x0 java.net.InetAddress)))
(check-sat)
(pop)
(pop)
(push)
(assert (le x0 java.net.InetAddress))
(check-sat)
(pop)
(push)
(assert (not (le x0 java.net.InetAddress)))
(check-sat)
(pop)
(push)
(assert (le x1 java.lang.StringBuilder))
(check-sat)
(pop)
(push)
(assert (not (le x1 java.lang.StringBuilder)))
(check-sat)
(pop)
(push)
(assert (le x0 java.net.InetAddress))
(check-sat)
(pop)
(push)
(assert (not (le x0 java.net.InetAddress)))
(check-sat)
(push)
(assert (le x0 java.net.InetAddress))
(check-sat)
(pop)
(push)
(assert (not (le x0 java.net.InetAddress)))
(check-sat)
(pop)
(pop)
(push)
(assert (le x1 java.lang.StringBuilder))
(check-sat)
(pop)
(push)
(assert (not (le x1 java.lang.StringBuilder)))
(check-sat)
(push)
(assert (le x0 java.net.InetAddress))
(check-sat)
(pop)
(push)
(assert (not (le x0 java.net.InetAddress)))
(check-sat)
(pop)
(pop)
(push)
(assert (le x1 java.lang.StringBuilder))
(check-sat)
(pop)
(push)
(assert (not (le x1 java.lang.StringBuilder)))
(check-sat)
(pop)
(pop)
(push)
(assert (le x0 java.net.InetAddress))
(check-sat)
(pop)
(push)
(assert (not (le x0 java.net.InetAddress)))
(check-sat)
(push)
(assert (le x0 java.net.InetAddress))
(check-sat)
(pop)
(push)
(assert (not (le x0 java.net.InetAddress)))
(check-sat)
(pop)
(push)
(assert (le x1 java.lang.StringBuilder))
(check-sat)
(pop)
(push)
(assert (not (le x1 java.lang.StringBuilder)))
(check-sat)
(push)
(assert (le x1 java.lang.StringBuilder))
(check-sat)
(pop)
(push)
(assert (not (le x1 java.lang.StringBuilder)))
(check-sat)
(push)
(assert (le x0 java.net.InetAddress))
(check-sat)
(pop)
(push)
(assert (not (le x0 java.net.InetAddress)))
(check-sat)
(push)
(assert (le x1 java.lang.StringBuilder))
(check-sat)
(pop)
(push)
(assert (not (le x1 java.lang.StringBuilder)))
(check-sat)
(pop)
(pop)
(push)
(assert (le x0 java.net.InetAddress))
(check-sat)
(pop)
(push)
(assert (not (le x0 java.net.InetAddress)))
(check-sat)
(pop)
(pop)
(push)
(assert (le x0 java.net.InetAddress))
(check-sat)
(pop)
(push)
(assert (not (le x0 java.net.InetAddress)))
(check-sat)
(pop)
(push)
(assert (le x1 java.lang.StringBuilder))
(check-sat)
(pop)
(push)
(assert (not (le x1 java.lang.StringBuilder)))
(check-sat)
(push)
(assert (le x0 java.net.InetAddress))
(check-sat)
(pop)
(push)
(assert (not (le x0 java.net.InetAddress)))
(check-sat)
(push)
(assert (le x1 java.lang.StringBuilder))
(check-sat)
(pop)
(push)
(assert (not (le x1 java.lang.StringBuilder)))
(check-sat)
(pop)
(pop)
(pop)
(pop)
(push)
(assert (le x0 java.net.InetAddress))
(check-sat)
(pop)
(push)
(assert (not (le x0 java.net.InetAddress)))
(check-sat)
(push)
(assert (le x0 java.net.InetAddress))
(check-sat)
(pop)
(push)
(assert (not (le x0 java.net.InetAddress)))
(check-sat)
(push)
(assert (le x1 java.lang.StringBuilder))
(check-sat)
(pop)
(push)
(assert (not (le x1 java.lang.StringBuilder)))
(check-sat)
(pop)
(pop)
(pop)
(push)
(assert (le x0 java.net.InetAddress))
(check-sat)
(pop)
(push)
(assert (not (le x0 java.net.InetAddress)))
(check-sat)
(push)
(assert (le x0 java.net.InetAddress))
(check-sat)
(pop)
(push)
(assert (not (le x0 java.net.InetAddress)))
(check-sat)
(push)
(assert (le x0 java.net.InetAddress))
(check-sat)
(pop)
(push)
(assert (not (le x0 java.net.InetAddress)))
(check-sat)
(pop)
(pop)
(push)
(assert (le x1 java.lang.StringBuilder))
(check-sat)
(pop)
(push)
(assert (not (le x1 java.lang.StringBuilder)))
(check-sat)
(push)
(assert (le x1 java.lang.StringBuilder))
(check-sat)
(pop)
(push)
(assert (not (le x1 java.lang.StringBuilder)))
(check-sat)
(pop)
(pop)
(push)
(assert (le x0 java.net.InetAddress))
(check-sat)
(pop)
(push)
(assert (not (le x0 java.net.InetAddress)))
(check-sat)
(pop)
(pop)
(pop)
(push)
(assert (le x1 java.lang.StringBuilder))
(check-sat)
(pop)
(push)
(assert (not (le x1 java.lang.StringBuilder)))
(check-sat)
(push)
(assert (le x0 java.net.InetAddress))
(check-sat)
(pop)
(push)
(assert (not (le x0 java.net.InetAddress)))
(check-sat)
(pop)
(push)
(assert (le x0 java.net.InetAddress))
(check-sat)
(pop)
(push)
(assert (not (le x0 java.net.InetAddress)))
(check-sat)
(pop)
(push)
(assert (le x0 java.net.InetAddress))
(check-sat)
(pop)
(push)
(assert (not (le x0 java.net.InetAddress)))
(check-sat)
(pop)
(push)
(assert (le x1 java.lang.StringBuilder))
(check-sat)
(pop)
(push)
(assert (not (le x1 java.lang.StringBuilder)))
(check-sat)
(push)
(assert (le x1 java.lang.StringBuilder))
(check-sat)
(pop)
(push)
(assert (not (le x1 java.lang.StringBuilder)))
(check-sat)
(pop)
(pop)
(pop)
(pop)
(pop)
(pop)
